%%%%%%%%%%%%%%%%%%%%%%%%%%%%%%%%%%%%%%%%%%%%%%%%%%%%%%%%%%%%%%%%%%%%%%%%%
%FILE DATA:	Soccer Computational Problem for MiniZinc Models
%AUTHORS:	Robinson Duque, Alejandro Arbelaez, Juan Francisco Díaz
%CONTACT:  	robinson.duque@correounivalle.edu.co 
%LAST UPDATE:	May, 2018 
%ROUND ROBIN:2
%TEAMS:20
%PRESENT FIXTURE:21
%FIXTURES TO PLAY:17
%GAMES TO PLAY:170
%%%%%%%%%%%%%%%%%%%%%%%%%%%%%%%%%%%%%%%%%%%%%%%%%%%%%%%%%%%%%%%%%%%%%%%%%
%Number of teams:
n=20;

%For the purpose of our models, we offer two representations of the games to play, namely fixtures and games to play:

%Fixtures to play:
%fixtures=[|0,0,0,1,1,1,1,1,1,1,1,1,1,1,1,1,1,1,1,1
%|0,0,0,1,1,1,1,1,1,1,1,1,1,1,1,1,1,1,1,1
%|0,0,0,1,1,1,1,1,1,1,1,1,1,1,1,1,1,1,1,1
%|1,1,1,0,1,0,0,1,1,1,1,1,1,1,1,1,1,1,1,1
%|1,1,1,1,0,1,0,1,1,0,1,1,1,1,1,1,1,1,1,1
%|1,1,1,0,1,0,1,1,0,1,1,1,1,1,1,1,1,1,1,1
%|1,1,1,0,0,1,0,1,1,1,1,1,1,1,1,1,1,1,1,1
%|1,1,1,1,1,1,1,0,0,1,1,1,0,1,1,1,1,1,1,1
%|1,1,1,1,1,0,1,0,0,1,1,1,1,1,1,1,1,1,1,1
%|1,1,1,1,0,1,1,1,1,0,1,1,1,0,1,1,1,1,1,1
%|1,1,1,1,1,1,1,1,1,1,0,1,1,1,1,1,1,1,0,0
%|1,1,1,1,1,1,1,1,1,1,1,0,0,1,0,1,1,1,1,1
%|1,1,1,1,1,1,1,0,1,1,1,0,0,1,1,1,1,1,1,1
%|1,1,1,1,1,1,1,1,1,0,1,1,1,0,0,1,1,1,1,1
%|1,1,1,1,1,1,1,1,1,1,1,0,1,0,0,1,1,1,1,1
%|1,1,1,1,1,1,1,1,1,1,1,1,1,1,1,0,1,0,1,0
%|1,1,1,1,1,1,1,1,1,1,1,1,1,1,1,1,0,0,0,1
%|1,1,1,1,1,1,1,1,1,1,1,1,1,1,1,0,0,0,1,1
%|1,1,1,1,1,1,1,1,1,1,0,1,1,1,1,1,0,1,0,1
%|1,1,1,1,1,1,1,1,1,1,0,1,1,1,1,0,1,1,1,0|];

%Played Fixtures:
%PlayedFixtures=[|0,2,2,1,1,1,1,1,1,1,1,1,1,1,1,1,1,1,1,1
%|2,0,2,1,1,1,1,1,1,1,1,1,1,1,1,1,1,1,1,1
%|2,2,0,1,1,1,1,1,1,1,1,1,1,1,1,1,1,1,1,1
%|1,1,1,0,1,2,2,1,1,1,1,1,1,1,1,1,1,1,1,1
%|1,1,1,1,0,1,2,1,1,2,1,1,1,1,1,1,1,1,1,1
%|1,1,1,2,1,0,1,1,2,1,1,1,1,1,1,1,1,1,1,1
%|1,1,1,2,2,1,0,1,1,1,1,1,1,1,1,1,1,1,1,1
%|1,1,1,1,1,1,1,0,2,1,1,1,2,1,1,1,1,1,1,1
%|1,1,1,1,1,2,1,2,0,1,1,1,1,1,1,1,1,1,1,1
%|1,1,1,1,2,1,1,1,1,0,1,1,1,2,1,1,1,1,1,1
%|1,1,1,1,1,1,1,1,1,1,0,1,1,1,1,1,1,1,2,2
%|1,1,1,1,1,1,1,1,1,1,1,0,2,1,2,1,1,1,1,1
%|1,1,1,1,1,1,1,2,1,1,1,2,0,1,1,1,1,1,1,1
%|1,1,1,1,1,1,1,1,1,2,1,1,1,0,2,1,1,1,1,1
%|1,1,1,1,1,1,1,1,1,1,1,2,1,2,0,1,1,1,1,1
%|1,1,1,1,1,1,1,1,1,1,1,1,1,1,1,0,1,2,1,2
%|1,1,1,1,1,1,1,1,1,1,1,1,1,1,1,1,0,2,2,1
%|1,1,1,1,1,1,1,1,1,1,1,1,1,1,1,2,2,0,1,1
%|1,1,1,1,1,1,1,1,1,1,2,1,1,1,1,1,2,1,0,1
%|1,1,1,1,1,1,1,1,1,1,2,1,1,1,1,2,1,1,1,0|];

%Games to play:
games=[|4,1|4,2|4,3|5,1|5,2|5,3|5,4|6,1|6,2|6,3|6,5|7,1|7,2|7,3|7,6|8,1|8,2|8,3|8,4|8,5|8,6|8,7|9,1|9,2|9,3|9,4|9,5|9,7|10,1|10,2|10,3|10,4|10,6|10,7|10,8|10,9|11,1|11,2|11,3|11,4|11,5|11,6|11,7|11,8|11,9|11,10|12,1|12,2|12,3|12,4|12,5|12,6|12,7|12,8|12,9|12,10|12,11|13,1|13,2|13,3|13,4|13,5|13,6|13,7|13,9|13,10|13,11|14,1|14,2|14,3|14,4|14,5|14,6|14,7|14,8|14,9|14,11|14,12|14,13|15,1|15,2|15,3|15,4|15,5|15,6|15,7|15,8|15,9|15,10|15,11|15,13|16,1|16,2|16,3|16,4|16,5|16,6|16,7|16,8|16,9|16,10|16,11|16,12|16,13|16,14|16,15|17,1|17,2|17,3|17,4|17,5|17,6|17,7|17,8|17,9|17,10|17,11|17,12|17,13|17,14|17,15|17,16|18,1|18,2|18,3|18,4|18,5|18,6|18,7|18,8|18,9|18,10|18,11|18,12|18,13|18,14|18,15|19,1|19,2|19,3|19,4|19,5|19,6|19,7|19,8|19,9|19,10|19,12|19,13|19,14|19,15|19,16|19,18|20,1|20,2|20,3|20,4|20,5|20,6|20,7|20,8|20,9|20,10|20,12|20,13|20,14|20,15|20,17|20,18|20,19|];

%Played Games:
%PlayedGames=[|2,1|2,1|3,1|3,1|3,2|3,2|4,1|4,2|4,3|5,1|5,2|5,3|5,4|6,1|6,2|6,3|6,4|6,4|6,5|7,1|7,2|7,3|7,4|7,4|7,5|7,5|7,6|8,1|8,2|8,3|8,4|8,5|8,6|8,7|9,1|9,2|9,3|9,4|9,5|9,6|9,6|9,7|9,8|9,8|10,1|10,2|10,3|10,4|10,5|10,5|10,6|10,7|10,8|10,9|11,1|11,2|11,3|11,4|11,5|11,6|11,7|11,8|11,9|11,10|12,1|12,2|12,3|12,4|12,5|12,6|12,7|12,8|12,9|12,10|12,11|13,1|13,2|13,3|13,4|13,5|13,6|13,7|13,8|13,8|13,9|13,10|13,11|13,12|13,12|14,1|14,2|14,3|14,4|14,5|14,6|14,7|14,8|14,9|14,10|14,10|14,11|14,12|14,13|15,1|15,2|15,3|15,4|15,5|15,6|15,7|15,8|15,9|15,10|15,11|15,12|15,12|15,13|15,14|15,14|16,1|16,2|16,3|16,4|16,5|16,6|16,7|16,8|16,9|16,10|16,11|16,12|16,13|16,14|16,15|17,1|17,2|17,3|17,4|17,5|17,6|17,7|17,8|17,9|17,10|17,11|17,12|17,13|17,14|17,15|17,16|18,1|18,2|18,3|18,4|18,5|18,6|18,7|18,8|18,9|18,10|18,11|18,12|18,13|18,14|18,15|18,16|18,16|18,17|18,17|19,1|19,2|19,3|19,4|19,5|19,6|19,7|19,8|19,9|19,10|19,11|19,11|19,12|19,13|19,14|19,15|19,16|19,17|19,17|19,18|20,1|20,2|20,3|20,4|20,5|20,6|20,7|20,8|20,9|20,10|20,11|20,11|20,12|20,13|20,14|20,15|20,16|20,16|20,17|20,18|20,19|];

%Played Games - Win Results:
%% 0  0  0  0  0  0  0  0  0  1  0  0  0  0  0  1  1  0  0  0
%% 0  0  0  0  0  0  1  0  0  1  0  0  0  0  0  0  0  1  0  0
%% 0  0  0  0  0  0  0  0  0  0  0  0  0  0  0  0  0  0  0  0
%% 0  0  0  0  0  0  0  0  1  1  0  0  0  0  0  0  0  1  0  0
%% 0  1  0  1  0  0  0  0  1  0  1  0  0  0  1  1  0  0  0  0
%% 1  1  1  0  0  0  0  0  0  0  0  0  0  1  1  0  1  1  0  0
%% 1  0  0  0  0  0  0  0  0  0  0  0  0  0  0  1  1  0  0  0
%% 1  0  0  1  1  1  1  0  0  1  0  0  0  0  1  1  0  1  0  0
%% 0  0  0  0  0  0  0  0  0  0  0  0  0  0  0  0  0  0  0  0
%% 0  0  0  0  0  0  0  0  0  0  0  0  0  0  0  0  1  0  0  0
%% 0  1  0  1  0  0  0  0  1  0  0  0  1  1  0  0  1  0  0  0
%% 1  0  1  1  1  0  1  1  0  0  1  0  0  1  0  0  1  1  1  0
%% 1  0  0  0  0  1  1  0  0  1  0  0  0  0  1  0  0  1  0  0
%% 0  0  0  0  0  0  0  0  0  0  0  0  0  0  0  0  0  0  0  0
%% 0  0  0  0  0  0  0  0  0  0  0  0  0  0  0  0  0  0  0  0
%% 0  0  0  0  0  0  0  0  0  1  0  0  0  1  1  0  0  0  0  0
%% 0  0  1  0  0  0  0  0  0  0  0  0  0  0  0  0  0  0  0  0
%% 0  0  0  0  0  0  0  0  0  0  0  0  0  0  1  0  0  0  0  0
%% 0  1  1  0  1  1  0  0  0  0  1  0  1  1  0  1  0  1  0  0
%% 0  1  1  1  0  0  1  1  1  1  0  1  1  1  0  0  0  1  1  0
%Played Games - Tie Results:
%% 0  2  2  1  1  0  0  0  1  0  1  0  0  1  1  0  0  1  1  1
%% 2  0  2  1  0  0  0  1  1  0  0  1  1  1  1  1  1  0  0  0
%% 2  2  0  1  1  0  1  1  1  1  1  0  1  1  1  1  0  1  0  0
%% 1  1  1  0  0  2  2  0  0  0  0  0  1  1  1  1  1  0  1  0
%% 1  0  1  0  0  1  2  0  0  2  0  0  1  1  0  0  1  1  0  1
%% 0  0  0  2  1  0  1  0  2  1  1  1  0  0  0  1  0  0  0  1
%% 0  0  1  2  2  1  0  0  1  1  1  0  0  1  1  0  0  1  1  0
%% 0  1  1  0  0  0  0  0  2  0  1  0  2  1  0  0  1  0  1  0
%% 1  1  1  0  0  2  1  2  0  1  0  1  1  1  1  1  1  1  1  0
%% 0  0  1  0  2  1  1  0  1  0  1  1  0  2  1  0  0  1  1  0
%% 1  0  1  0  0  1  1  1  0  1  0  0  0  0  1  1  0  1  1  2
%% 0  1  0  0  0  1  0  0  1  1  0  0  2  0  2  1  0  0  0  0
%% 0  1  1  1  1  0  0  2  1  0  0  2  0  1  0  1  1  0  0  0
%% 1  1  1  1  1  0  1  1  1  2  0  0  1  0  2  0  1  1  0  0
%% 1  1  1  1  0  0  1  0  1  1  1  2  0  2  0  0  1  0  1  1
%% 0  1  1  1  0  1  0  0  1  0  1  1  1  0  0  0  1  2  0  2
%% 0  1  0  1  1  0  0  1  1  0  0  0  1  1  1  1  0  2  2  1
%% 1  0  1  0  1  0  1  0  1  1  1  0  0  1  0  2  2  0  0  0
%% 1  0  0  1  0  0  1  1  1  1  1  0  0  0  1  0  2  0  0  0
%% 1  0  0  0  1  1  0  0  0  0  2  0  0  0  1  2  1  0  0  0
%Played Games - Lose Results:
%% 0  0  0  0  0  1  1  1  0  0  0  1  1  0  0  0  0  0  0  0
%% 0  0  0  0  1  1  0  0  0  0  1  0  0  0  0  0  0  0  1  1
%% 0  0  0  0  0  1  0  0  0  0  0  1  0  0  0  0  1  0  1  1
%% 0  0  0  0  1  0  0  1  0  0  1  1  0  0  0  0  0  0  0  1
%% 0  0  0  0  0  0  0  1  0  0  0  1  0  0  0  0  0  0  1  0
%% 0  0  0  0  0  0  0  1  0  0  0  0  1  0  0  0  0  0  1  0
%% 0  1  0  0  0  0  0  1  0  0  0  1  1  0  0  0  0  0  0  1
%% 0  0  0  0  0  0  0  0  0  0  0  1  0  0  0  0  0  0  0  1
%% 0  0  0  1  1  0  0  0  0  0  1  0  0  0  0  0  0  0  0  1
%% 1  1  0  1  0  0  0  1  0  0  0  0  1  0  0  1  0  0  0  1
%% 0  0  0  0  1  0  0  0  0  0  0  1  0  0  0  0  0  0  1  0
%% 0  0  0  0  0  0  0  0  0  0  0  0  0  0  0  0  0  0  0  1
%% 0  0  0  0  0  0  0  0  0  0  1  0  0  0  0  0  0  0  1  1
%% 0  0  0  0  0  1  0  0  0  0  1  1  0  0  0  1  0  0  1  1
%% 0  0  0  0  1  1  0  1  0  0  0  0  1  0  0  1  0  1  0  0
%% 1  0  0  0  1  0  1  1  0  0  0  0  0  0  0  0  0  0  1  0
%% 1  0  0  0  0  1  1  0  0  1  1  1  0  0  0  0  0  0  0  0
%% 0  1  0  1  0  1  0  1  0  0  0  1  1  0  0  0  0  0  1  1
%% 0  0  0  0  0  0  0  0  0  0  0  1  0  0  0  0  0  0  0  1
%% 0  0  0  0  0  0  0  0  0  0  0  0  0  0  0  0  0  0  0  0

%%Initial points:
iPoints=[22, 22, 16, 22, 30, 32, 22, 37, 17, 16, 30, 42, 30, 15, 15, 22, 17, 15, 37, 45];

%%Initial positions:
%iPositions=[13, 12, 17, 11, 8, 5, 10, 4, 15, 16, 7, 2, 6, 20, 19, 9, 14, 18, 3, 1];

%%Position Constraints:
%numberPositionConstraints=2;

%%Total Fixtures:
%totalFixtures=38;

%%Fixtures to Play:
%fixturesToPlay=17;

%%Position Constraints Built With
%wantedPoints=[0, 0, 3, 3, 0, 0, 3, 0, 3, 0, 1, 3, 1, 1, 3, 1, 0, 1, 1, 1, 1, 1, 3, 0, 0, 0, 1, 0, 1, 1, 3, 1, 3, 3, 0, 1, 3, 3, 3, 0, 0, 1, 3, 1, 0, 1, 3, 0, 3, 3, 3, 1, 1, 1, 0, 1, 3, 3, 1, 3, 3, 1, 0, 3, 0, 1, 3, 1, 3, 0, 0, 1, 0, 1, 0, 3, 1, 3, 3, 1, 3, 3, 1, 1, 0, 0, 0, 1, 3, 3, 0, 0, 0, 0, 0, 3, 1, 0, 0, 0, 1, 0, 3, 0, 1, 3, 3, 1, 1, 1, 0, 3, 1, 0, 1, 3, 3, 0, 0, 3, 0, 1, 3, 1, 1, 1, 3, 0, 0, 0, 1, 3, 3, 1, 1, 0, 3, 1, 0, 0, 0, 1, 0, 1, 0, 3, 3, 3, 3, 0, 1, 1, 0, 1, 3, 0, 3, 3, 0, 3, 0, 1, 3, 3, 1, 1, 1, 3, 1, 1];

%POSITION CONSTRAINTS
%%[|teamID, operator, position|...]
%%operators index:
%%%1 for =  operator
%%%2 for >  operator
%%%3 for >= operator
%%%4 for <  operator
%%%5 for <= operator

positionConstraints=[|18,1,13|20,1,1|];

%SCORE VECTOR CONSTRAINTS
%%[|teamID, operator, wantedPoints|...]
%%operators index:
%%%1 for =  operator
%%%2 for >  operator
%%%3 for >= operator
%%%4 for <  operator
%%%5 for <= operator

%scoreVectorConstraints=[|18,1,40|20,1,73|];

%Instance Features:
%features=T,FP,TF,C,C/T,C/TF,FP/TF,FP/T,FP*C/T,FP*T/C,(C/T)*(FP/TF),Distance,Distance/C,Distance/T,Distance/(C*T)
%values=20,17,38,2,0.1,0.05263157894736842,0.4473684210526316,0.85,1.7,170.0,0.04473684210526316,5,2.5,0.25,0.125



gamesOfEveryTeam=[17,17,17,17,17,17,17,17,17,17,17,17,17,17,17,17,17,17,17,17];
weights=[|95,0,0,5|88,8,0,4|89,7,0,4|70,4,0,26|81,15,0,4|50,13,0,37|88,6,0,6|4,53,0,43|68,26,0,6|68,5,0,27|30,22,0,48|83,7,0,10|64,5,0,31|54,22,0,24|61,11,0,28|34,19,0,47|79,10,0,11|34,43,0,23|48,1,0,51|78,10,0,12|16,59,0,25|58,22,0,20|96,3,0,1|67,13,0,20|50,28,0,22|97,3,0,0|66,0,0,34|25,47,0,28|57,15,0,28|68,21,0,11|62,35,0,3|10,64,0,26|21,50,0,29|71,24,0,5|74,15,0,11|44,36,0,20|48,39,0,13|68,18,0,14|24,57,0,19|14,35,0,51|37,24,0,39|91,7,0,2|7,61,0,32|14,83,0,3|86,12,0,2|45,43,0,12|99,0,0,1|87,12,0,1|26,38,0,36|66,28,0,6|23,76,0,1|48,30,0,22|52,45,0,3|82,13,0,5|38,43,0,19|24,47,0,29|28,17,0,55|21,11,0,68|72,11,0,17|77,21,0,2|6,85,0,9|47,42,0,11|62,8,0,30|70,17,0,13|96,0,0,4|89,9,0,2|31,33,0,36|14,80,0,6|34,56,0,10|99,0,0,1|71,3,0,26|3,9,0,88|14,22,0,64|69,11,0,20|27,53,0,20|45,1,0,54|50,11,0,39|39,4,0,57|28,29,0,43|65,30,0,5|24,18,0,58|17,64,0,19|47,4,0,49|43,22,0,35|18,68,0,14|79,2,0,19|37,40,0,23|59,25,0,16|8,39,0,53|17,16,0,67|15,82,0,3|95,3,0,2|65,27,0,8|24,62,0,14|65,23,0,12|42,37,0,21|65,24,0,11|50,12,0,38|99,1,0,0|98,2,0,0|78,10,0,12|97,1,0,2|95,5,0,0|47,45,0,8|17,33,0,50|93,5,0,2|43,43,0,14|3,77,0,20|22,12,0,66|66,22,0,12|61,20,0,19|5,39,0,56|37,52,0,11|44,43,0,13|36,39,0,25|85,15,0,0|23,31,0,46|61,27,0,12|40,3,0,57|91,4,0,5|26,32,0,42|67,18,0,15|54,30,0,16|3,28,0,69|70,27,0,3|13,11,0,76|5,82,0,13|24,15,0,61|66,26,0,8|5,20,0,75|53,23,0,24|16,70,0,14|81,6,0,13|27,65,0,8|86,13,0,1|99,1,0,0|47,31,0,22|67,14,0,19|42,8,0,50|43,21,0,36|88,0,0,12|93,2,0,5|80,12,0,8|26,30,0,44|93,6,0,1|40,55,0,5|45,44,0,11|16,51,0,33|92,2,0,6|18,18,0,64|61,28,0,11|7,48,0,45|3,28,0,69|94,2,0,4|86,3,0,11|29,54,0,17|39,18,0,43|20,50,0,30|1,18,0,81|44,53,0,3|89,6,0,5|51,11,0,38|14,60,0,26|81,0,0,19|77,19,0,4|1,94,0,5|58,22,0,20|32,1,0,67|60,13,0,27|86,5,0,9|];